p cnf 200 1110
-101 -74 0
-101 -83 0
-101 81 0
-101 27 0
-101 -35 0
-101 32 0
-101 -53 0
-101 -96 0
-101 47 0
-101 98 0
101 74 83 -81 -27 35 -32 53 96 -47 -98 0
-102 -23 0
-102 65 0
-102 1 0
-102 6 0
-102 -58 0
-102 -100 0
-102 83 0
-102 68 0
-102 28 0
-102 -26 0
102 23 -65 -1 -6 58 100 -83 -68 -28 26 0
-103 -35 0
-103 59 0
-103 -99 0
-103 10 0
-103 -87 0
-103 -77 0
-103 73 0
-103 -36 0
-103 -67 0
-103 94 0
103 35 -59 99 -10 87 77 -73 36 67 -94 0
-104 33 0
-104 -16 0
-104 -95 0
-104 40 0
-104 78 0
-104 2 0
-104 84 0
-104 89 0
-104 85 0
-104 77 0
104 -33 16 95 -40 -78 -2 -84 -89 -85 -77 0
-105 -18 0
-105 65 0
-105 -4 0
-105 98 0
-105 76 0
-105 -11 0
-105 22 0
-105 -3 0
-105 64 0
-105 -85 0
105 18 -65 4 -98 -76 11 -22 3 -64 85 0
-106 -7 0
-106 63 0
-106 70 0
-106 -83 0
-106 -78 0
-106 -73 0
-106 -86 0
-106 58 0
-106 -27 0
-106 -22 0
106 7 -63 -70 83 78 73 86 -58 27 22 0
-107 -71 0
-107 46 0
-107 1 0
-107 66 0
-107 -93 0
-107 33 0
-107 14 0
-107 88 0
-107 -84 0
-107 87 0
107 71 -46 -1 -66 93 -33 -14 -88 84 -87 0
-108 -75 0
-108 12 0
-108 -16 0
-108 54 0
-108 18 0
-108 -93 0
-108 62 0
-108 77 0
-108 -68 0
-108 -45 0
108 75 -12 16 -54 -18 93 -62 -77 68 45 0
-109 -41 0
-109 -35 0
-109 27 0
-109 34 0
-109 4 0
-109 -47 0
-109 3 0
-109 96 0
-109 -71 0
-109 22 0
109 41 35 -27 -34 -4 47 -3 -96 71 -22 0
-110 26 0
-110 -87 0
-110 15 0
-110 62 0
-110 -30 0
-110 11 0
-110 61 0
-110 95 0
-110 67 0
-110 20 0
110 -26 87 -15 -62 30 -11 -61 -95 -67 -20 0
101 102 103 104 105 106 107 108 109 110 0
-111 88 0
-111 74 0
-111 -98 0
-111 49 0
-111 -31 0
-111 -22 0
-111 21 0
-111 30 0
-111 29 0
-111 -99 0
111 -88 -74 98 -49 31 22 -21 -30 -29 99 0
-112 -100 0
-112 -87 0
-112 -44 0
-112 -88 0
-112 -86 0
-112 -72 0
-112 11 0
-112 59 0
-112 85 0
-112 99 0
112 100 87 44 88 86 72 -11 -59 -85 -99 0
-113 88 0
-113 -28 0
-113 14 0
-113 74 0
-113 -68 0
-113 93 0
-113 -91 0
-113 -75 0
-113 -100 0
-113 -36 0
113 -88 28 -14 -74 68 -93 91 75 100 36 0
-114 -44 0
-114 87 0
-114 -88 0
-114 45 0
-114 13 0
-114 -17 0
-114 -31 0
-114 -59 0
-114 -24 0
-114 -25 0
114 44 -87 88 -45 -13 17 31 59 24 25 0
-115 -40 0
-115 -60 0
-115 -28 0
-115 -95 0
-115 100 0
-115 -59 0
-115 -50 0
-115 8 0
-115 -91 0
-115 -11 0
115 40 60 28 95 -100 59 50 -8 91 11 0
-116 53 0
-116 -69 0
-116 54 0
-116 83 0
-116 -3 0
-116 -8 0
-116 -15 0
-116 62 0
-116 64 0
-116 -80 0
116 -53 69 -54 -83 3 8 15 -62 -64 80 0
-117 -54 0
-117 -82 0
-117 -60 0
-117 38 0
-117 -11 0
-117 97 0
-117 85 0
-117 -84 0
-117 -95 0
-117 13 0
117 54 82 60 -38 11 -97 -85 84 95 -13 0
-118 -52 0
-118 -7 0
-118 -82 0
-118 -97 0
-118 -30 0
-118 -38 0
-118 -24 0
-118 43 0
-118 -33 0
-118 98 0
118 52 7 82 97 30 38 24 -43 33 -98 0
-119 26 0
-119 72 0
-119 90 0
-119 61 0
-119 -91 0
-119 -39 0
-119 46 0
-119 37 0
-119 49 0
-119 43 0
119 -26 -72 -90 -61 91 39 -46 -37 -49 -43 0
-120 -71 0
-120 -88 0
-120 87 0
-120 -96 0
-120 73 0
-120 -68 0
-120 -47 0
-120 -34 0
-120 -55 0
-120 94 0
120 71 88 -87 96 -73 68 47 34 55 -94 0
111 112 113 114 115 116 117 118 119 120 0
-121 33 0
-121 -87 0
-121 -61 0
-121 -74 0
-121 82 0
-121 95 0
-121 -28 0
-121 53 0
-121 -94 0
-121 20 0
121 -33 87 61 74 -82 -95 28 -53 94 -20 0
-122 -99 0
-122 75 0
-122 26 0
-122 -73 0
-122 71 0
-122 48 0
-122 39 0
-122 44 0
-122 14 0
-122 -32 0
122 99 -75 -26 73 -71 -48 -39 -44 -14 32 0
-123 56 0
-123 -68 0
-123 25 0
-123 67 0
-123 -18 0
-123 95 0
-123 -14 0
-123 15 0
-123 49 0
-123 77 0
123 -56 68 -25 -67 18 -95 14 -15 -49 -77 0
-124 -53 0
-124 -83 0
-124 22 0
-124 -29 0
-124 -56 0
-124 36 0
-124 73 0
-124 81 0
-124 -64 0
-124 72 0
124 53 83 -22 29 56 -36 -73 -81 64 -72 0
-125 -62 0
-125 99 0
-125 55 0
-125 92 0
-125 73 0
-125 5 0
-125 -14 0
-125 19 0
-125 48 0
-125 -30 0
125 62 -99 -55 -92 -73 -5 14 -19 -48 30 0
-126 -22 0
-126 43 0
-126 -93 0
-126 -19 0
-126 -72 0
-126 92 0
-126 54 0
-126 86 0
-126 71 0
-126 -14 0
126 22 -43 93 19 72 -92 -54 -86 -71 14 0
-127 30 0
-127 -43 0
-127 -62 0
-127 73 0
-127 95 0
-127 71 0
-127 12 0
-127 36 0
-127 -32 0
-127 -15 0
127 -30 43 62 -73 -95 -71 -12 -36 32 15 0
-128 -58 0
-128 17 0
-128 -62 0
-128 -59 0
-128 21 0
-128 -40 0
-128 -4 0
-128 -89 0
-128 -46 0
-128 -9 0
128 58 -17 62 59 -21 40 4 89 46 9 0
-129 72 0
-129 77 0
-129 67 0
-129 -85 0
-129 -13 0
-129 15 0
-129 -1 0
-129 61 0
-129 -89 0
-129 22 0
129 -72 -77 -67 85 13 -15 1 -61 89 -22 0
-130 -14 0
-130 27 0
-130 99 0
-130 69 0
-130 -17 0
-130 -54 0
-130 51 0
-130 -98 0
-130 -66 0
-130 67 0
130 14 -27 -99 -69 17 54 -51 98 66 -67 0
121 122 123 124 125 126 127 128 129 130 0
-131 82 0
-131 -13 0
-131 -76 0
-131 6 0
-131 -22 0
-131 77 0
-131 -59 0
-131 -18 0
-131 -99 0
-131 44 0
131 -82 13 76 -6 22 -77 59 18 99 -44 0
-132 47 0
-132 15 0
-132 91 0
-132 12 0
-132 -22 0
-132 -35 0
-132 -14 0
-132 -28 0
-132 77 0
-132 -64 0
132 -47 -15 -91 -12 22 35 14 28 -77 64 0
-133 -31 0
-133 27 0
-133 -90 0
-133 83 0
-133 -72 0
-133 21 0
-133 37 0
-133 3 0
-133 -73 0
-133 50 0
133 31 -27 90 -83 72 -21 -37 -3 73 -50 0
-134 -76 0
-134 -73 0
-134 -22 0
-134 -99 0
-134 85 0
-134 23 0
-134 43 0
-134 -82 0
-134 -89 0
-134 -87 0
134 76 73 22 99 -85 -23 -43 82 89 87 0
-135 80 0
-135 79 0
-135 96 0
-135 -66 0
-135 -3 0
-135 31 0
-135 21 0
-135 -23 0
-135 -59 0
-135 -30 0
135 -80 -79 -96 66 3 -31 -21 23 59 30 0
-136 -53 0
-136 35 0
-136 -32 0
-136 73 0
-136 -8 0
-136 -45 0
-136 95 0
-136 78 0
-136 49 0
-136 -33 0
136 53 -35 32 -73 8 45 -95 -78 -49 33 0
-137 -65 0
-137 -57 0
-137 5 0
-137 98 0
-137 1 0
-137 79 0
-137 72 0
-137 -78 0
-137 64 0
-137 -21 0
137 65 57 -5 -98 -1 -79 -72 78 -64 21 0
-138 -52 0
-138 -50 0
-138 -89 0
-138 -2 0
-138 -27 0
-138 44 0
-138 -79 0
-138 98 0
-138 62 0
-138 -74 0
138 52 50 89 2 27 -44 79 -98 -62 74 0
-139 96 0
-139 -95 0
-139 6 0
-139 -82 0
-139 73 0
-139 52 0
-139 93 0
-139 -1 0
-139 18 0
-139 -56 0
139 -96 95 -6 82 -73 -52 -93 1 -18 56 0
-140 31 0
-140 -2 0
-140 -57 0
-140 -49 0
-140 38 0
-140 82 0
-140 16 0
-140 67 0
-140 52 0
-140 -27 0
140 -31 2 57 49 -38 -82 -16 -67 -52 27 0
131 132 133 134 135 136 137 138 139 140 0
-141 -62 0
-141 82 0
-141 89 0
-141 23 0
-141 46 0
-141 -31 0
-141 -14 0
-141 98 0
-141 -74 0
-141 69 0
141 62 -82 -89 -23 -46 31 14 -98 74 -69 0
-142 56 0
-142 -99 0
-142 97 0
-142 66 0
-142 33 0
-142 -38 0
-142 2 0
-142 -61 0
-142 74 0
-142 -15 0
142 -56 99 -97 -66 -33 38 -2 61 -74 15 0
-143 95 0
-143 9 0
-143 4 0
-143 29 0
-143 26 0
-143 -92 0
-143 -24 0
-143 -56 0
-143 61 0
-143 -81 0
143 -95 -9 -4 -29 -26 92 24 56 -61 81 0
-144 -45 0
-144 8 0
-144 -47 0
-144 36 0
-144 -42 0
-144 -85 0
-144 54 0
-144 -82 0
-144 -27 0
-144 -62 0
144 45 -8 47 -36 42 85 -54 82 27 62 0
-145 57 0
-145 -55 0
-145 -42 0
-145 100 0
-145 -5 0
-145 -22 0
-145 15 0
-145 -6 0
-145 -85 0
-145 9 0
145 -57 55 42 -100 5 22 -15 6 85 -9 0
-146 14 0
-146 -85 0
-146 75 0
-146 -95 0
-146 37 0
-146 -18 0
-146 -71 0
-146 64 0
-146 21 0
-146 -96 0
146 -14 85 -75 95 -37 18 71 -64 -21 96 0
-147 24 0
-147 -37 0
-147 4 0
-147 -25 0
-147 20 0
-147 -66 0
-147 -69 0
-147 -42 0
-147 -2 0
-147 1 0
147 -24 37 -4 25 -20 66 69 42 2 -1 0
-148 -85 0
-148 -25 0
-148 -99 0
-148 -26 0
-148 -30 0
-148 -68 0
-148 52 0
-148 66 0
-148 39 0
-148 5 0
148 85 25 99 26 30 68 -52 -66 -39 -5 0
-149 32 0
-149 2 0
-149 28 0
-149 -65 0
-149 -95 0
-149 -83 0
-149 -20 0
-149 27 0
-149 67 0
-149 -89 0
149 -32 -2 -28 65 95 83 20 -27 -67 89 0
-150 -35 0
-150 -59 0
-150 47 0
-150 -94 0
-150 88 0
-150 65 0
-150 96 0
-150 -61 0
-150 86 0
-150 -97 0
150 35 59 -47 94 -88 -65 -96 61 -86 97 0
141 142 143 144 145 146 147 148 149 150 0
-151 -1 0
-151 39 0
-151 -13 0
-151 97 0
-151 46 0
-151 -83 0
-151 -65 0
-151 11 0
-151 -85 0
-151 15 0
151 1 -39 13 -97 -46 83 65 -11 85 -15 0
-152 55 0
-152 5 0
-152 -52 0
-152 20 0
-152 -71 0
-152 -39 0
-152 -45 0
-152 84 0
-152 -87 0
-152 17 0
152 -55 -5 52 -20 71 39 45 -84 87 -17 0
-153 55 0
-153 -23 0
-153 -96 0
-153 -91 0
-153 -32 0
-153 -42 0
-153 -39 0
-153 -3 0
-153 86 0
-153 97 0
153 -55 23 96 91 32 42 39 3 -86 -97 0
-154 -26 0
-154 96 0
-154 80 0
-154 -94 0
-154 50 0
-154 -19 0
-154 44 0
-154 64 0
-154 24 0
-154 -10 0
154 26 -96 -80 94 -50 19 -44 -64 -24 10 0
-155 23 0
-155 -51 0
-155 46 0
-155 -67 0
-155 -14 0
-155 12 0
-155 92 0
-155 2 0
-155 24 0
-155 -71 0
155 -23 51 -46 67 14 -12 -92 -2 -24 71 0
-156 61 0
-156 -96 0
-156 71 0
-156 -95 0
-156 41 0
-156 -65 0
-156 38 0
-156 17 0
-156 -27 0
-156 -26 0
156 -61 96 -71 95 -41 65 -38 -17 27 26 0
-157 58 0
-157 91 0
-157 -14 0
-157 27 0
-157 79 0
-157 -76 0
-157 81 0
-157 20 0
-157 -77 0
-157 -26 0
157 -58 -91 14 -27 -79 76 -81 -20 77 26 0
-158 -12 0
-158 -59 0
-158 -81 0
-158 -15 0
-158 -46 0
-158 -39 0
-158 3 0
-158 73 0
-158 -67 0
-158 56 0
158 12 59 81 15 46 39 -3 -73 67 -56 0
-159 -63 0
-159 -54 0
-159 65 0
-159 70 0
-159 -30 0
-159 -95 0
-159 -24 0
-159 1 0
-159 60 0
-159 10 0
159 63 54 -65 -70 30 95 24 -1 -60 -10 0
-160 -20 0
-160 -56 0
-160 76 0
-160 73 0
-160 -71 0
-160 60 0
-160 29 0
-160 68 0
-160 -65 0
-160 -83 0
160 20 56 -76 -73 71 -60 -29 -68 65 83 0
151 152 153 154 155 156 157 158 159 160 0
-161 -57 0
-161 -24 0
-161 92 0
-161 -13 0
-161 -37 0
-161 -55 0
-161 84 0
-161 -88 0
-161 -18 0
-161 -7 0
161 57 24 -92 13 37 55 -84 88 18 7 0
-162 60 0
-162 -33 0
-162 98 0
-162 -45 0
-162 -48 0
-162 36 0
-162 -76 0
-162 -46 0
-162 -3 0
-162 -8 0
162 -60 33 -98 45 48 -36 76 46 3 8 0
-163 -5 0
-163 7 0
-163 40 0
-163 -69 0
-163 -49 0
-163 96 0
-163 -3 0
-163 -28 0
-163 92 0
-163 -35 0
163 5 -7 -40 69 49 -96 3 28 -92 35 0
-164 34 0
-164 24 0
-164 -87 0
-164 -35 0
-164 58 0
-164 -57 0
-164 -55 0
-164 71 0
-164 93 0
-164 -73 0
164 -34 -24 87 35 -58 57 55 -71 -93 73 0
-165 74 0
-165 98 0
-165 -31 0
-165 -43 0
-165 19 0
-165 -82 0
-165 55 0
-165 -17 0
-165 -12 0
-165 59 0
165 -74 -98 31 43 -19 82 -55 17 12 -59 0
-166 -85 0
-166 -39 0
-166 -23 0
-166 -27 0
-166 58 0
-166 60 0
-166 98 0
-166 81 0
-166 69 0
-166 -10 0
166 85 39 23 27 -58 -60 -98 -81 -69 10 0
-167 -25 0
-167 88 0
-167 -14 0
-167 38 0
-167 -69 0
-167 58 0
-167 42 0
-167 -51 0
-167 -84 0
-167 35 0
167 25 -88 14 -38 69 -58 -42 51 84 -35 0
-168 -48 0
-168 25 0
-168 -82 0
-168 -22 0
-168 -96 0
-168 100 0
-168 -79 0
-168 31 0
-168 3 0
-168 24 0
168 48 -25 82 22 96 -100 79 -31 -3 -24 0
-169 -31 0
-169 -17 0
-169 3 0
-169 -44 0
-169 -72 0
-169 -27 0
-169 14 0
-169 -29 0
-169 -48 0
-169 23 0
169 31 17 -3 44 72 27 -14 29 48 -23 0
-170 80 0
-170 -54 0
-170 -13 0
-170 -85 0
-170 59 0
-170 15 0
-170 82 0
-170 2 0
-170 68 0
-170 83 0
170 -80 54 13 85 -59 -15 -82 -2 -68 -83 0
161 162 163 164 165 166 167 168 169 170 0
-171 51 0
-171 93 0
-171 63 0
-171 -53 0
-171 -28 0
-171 -30 0
-171 32 0
-171 -33 0
-171 -67 0
-171 -66 0
171 -51 -93 -63 53 28 30 -32 33 67 66 0
-172 11 0
-172 95 0
-172 67 0
-172 -74 0
-172 1 0
-172 56 0
-172 -41 0
-172 -51 0
-172 52 0
-172 -40 0
172 -11 -95 -67 74 -1 -56 41 51 -52 40 0
-173 -74 0
-173 26 0
-173 -72 0
-173 -22 0
-173 -69 0
-173 96 0
-173 -100 0
-173 -6 0
-173 -91 0
-173 28 0
173 74 -26 72 22 69 -96 100 6 91 -28 0
-174 -80 0
-174 41 0
-174 81 0
-174 30 0
-174 -25 0
-174 52 0
-174 78 0
-174 68 0
-174 -70 0
-174 -11 0
174 80 -41 -81 -30 25 -52 -78 -68 70 11 0
-175 -52 0
-175 -80 0
-175 -19 0
-175 -90 0
-175 77 0
-175 58 0
-175 86 0
-175 -3 0
-175 7 0
-175 -32 0
175 52 80 19 90 -77 -58 -86 3 -7 32 0
-176 63 0
-176 -88 0
-176 -58 0
-176 22 0
-176 93 0
-176 -59 0
-176 50 0
-176 -14 0
-176 73 0
-176 38 0
176 -63 88 58 -22 -93 59 -50 14 -73 -38 0
-177 -79 0
-177 -91 0
-177 23 0
-177 18 0
-177 -27 0
-177 -95 0
-177 -30 0
-177 86 0
-177 80 0
-177 66 0
177 79 91 -23 -18 27 95 30 -86 -80 -66 0
-178 -66 0
-178 55 0
-178 20 0
-178 -50 0
-178 -53 0
-178 -99 0
-178 -19 0
-178 3 0
-178 64 0
-178 -88 0
178 66 -55 -20 50 53 99 19 -3 -64 88 0
-179 33 0
-179 -74 0
-179 17 0
-179 -27 0
-179 97 0
-179 23 0
-179 -48 0
-179 -51 0
-179 14 0
-179 80 0
179 -33 74 -17 27 -97 -23 48 51 -14 -80 0
-180 35 0
-180 -53 0
-180 -23 0
-180 -74 0
-180 -100 0
-180 59 0
-180 -32 0
-180 40 0
-180 28 0
-180 95 0
180 -35 53 23 74 100 -59 32 -40 -28 -95 0
171 172 173 174 175 176 177 178 179 180 0
-181 -31 0
-181 82 0
-181 71 0
-181 -36 0
-181 -91 0
-181 -30 0
-181 42 0
-181 86 0
-181 -95 0
-181 -57 0
181 31 -82 -71 36 91 30 -42 -86 95 57 0
-182 74 0
-182 30 0
-182 -95 0
-182 46 0
-182 -32 0
-182 -56 0
-182 81 0
-182 67 0
-182 -86 0
-182 -39 0
182 -74 -30 95 -46 32 56 -81 -67 86 39 0
-183 80 0
-183 5 0
-183 -64 0
-183 88 0
-183 -37 0
-183 29 0
-183 33 0
-183 -50 0
-183 60 0
-183 -59 0
183 -80 -5 64 -88 37 -29 -33 50 -60 59 0
-184 -73 0
-184 -81 0
-184 -61 0
-184 77 0
-184 21 0
-184 -49 0
-184 96 0
-184 -46 0
-184 -28 0
-184 30 0
184 73 81 61 -77 -21 49 -96 46 28 -30 0
-185 79 0
-185 -16 0
-185 62 0
-185 95 0
-185 -93 0
-185 7 0
-185 24 0
-185 -8 0
-185 43 0
-185 -26 0
185 -79 16 -62 -95 93 -7 -24 8 -43 26 0
-186 37 0
-186 -82 0
-186 -72 0
-186 51 0
-186 17 0
-186 -55 0
-186 26 0
-186 -45 0
-186 -34 0
-186 -52 0
186 -37 82 72 -51 -17 55 -26 45 34 52 0
-187 95 0
-187 -7 0
-187 64 0
-187 -85 0
-187 -18 0
-187 -47 0
-187 6 0
-187 -49 0
-187 58 0
-187 90 0
187 -95 7 -64 85 18 47 -6 49 -58 -90 0
-188 79 0
-188 -8 0
-188 -44 0
-188 -72 0
-188 -12 0
-188 98 0
-188 -30 0
-188 -6 0
-188 -78 0
-188 71 0
188 -79 8 44 72 12 -98 30 6 78 -71 0
-189 72 0
-189 77 0
-189 -86 0
-189 78 0
-189 -19 0
-189 94 0
-189 47 0
-189 13 0
-189 -14 0
-189 93 0
189 -72 -77 86 -78 19 -94 -47 -13 14 -93 0
-190 100 0
-190 -97 0
-190 83 0
-190 -84 0
-190 -85 0
-190 95 0
-190 -51 0
-190 19 0
-190 23 0
-190 -11 0
190 -100 97 -83 84 85 -95 51 -19 -23 11 0
181 182 183 184 185 186 187 188 189 190 0
-191 42 0
-191 68 0
-191 79 0
-191 20 0
-191 38 0
-191 14 0
-191 -94 0
-191 -37 0
-191 77 0
-191 70 0
191 -42 -68 -79 -20 -38 -14 94 37 -77 -70 0
-192 -34 0
-192 72 0
-192 -1 0
-192 7 0
-192 -38 0
-192 -99 0
-192 6 0
-192 -55 0
-192 86 0
-192 -32 0
192 34 -72 1 -7 38 99 -6 55 -86 32 0
-193 12 0
-193 -48 0
-193 -16 0
-193 -65 0
-193 7 0
-193 71 0
-193 40 0
-193 -68 0
-193 -49 0
-193 77 0
193 -12 48 16 65 -7 -71 -40 68 49 -77 0
-194 -1 0
-194 6 0
-194 80 0
-194 -86 0
-194 95 0
-194 -52 0
-194 -14 0
-194 36 0
-194 -88 0
-194 -11 0
194 1 -6 -80 86 -95 52 14 -36 88 11 0
-195 50 0
-195 43 0
-195 65 0
-195 57 0
-195 -34 0
-195 64 0
-195 99 0
-195 15 0
-195 21 0
-195 -63 0
195 -50 -43 -65 -57 34 -64 -99 -15 -21 63 0
-196 57 0
-196 -52 0
-196 12 0
-196 39 0
-196 30 0
-196 92 0
-196 95 0
-196 90 0
-196 97 0
-196 56 0
196 -57 52 -12 -39 -30 -92 -95 -90 -97 -56 0
-197 58 0
-197 -91 0
-197 35 0
-197 -22 0
-197 -93 0
-197 -25 0
-197 -36 0
-197 59 0
-197 34 0
-197 -63 0
197 -58 91 -35 22 93 25 36 -59 -34 63 0
-198 -75 0
-198 -35 0
-198 76 0
-198 92 0
-198 -8 0
-198 -45 0
-198 19 0
-198 10 0
-198 -26 0
-198 -72 0
198 75 35 -76 -92 8 45 -19 -10 26 72 0
-199 20 0
-199 -68 0
-199 69 0
-199 34 0
-199 -56 0
-199 86 0
-199 -82 0
-199 -74 0
-199 78 0
-199 41 0
199 -20 68 -69 -34 56 -86 82 74 -78 -41 0
-200 36 0
-200 -31 0
-200 19 0
-200 -53 0
-200 6 0
-200 69 0
-200 34 0
-200 -93 0
-200 -99 0
-200 41 0
200 -36 31 -19 53 -6 -69 -34 93 99 -41 0
191 192 193 194 195 196 197 198 199 200 0
